% demand
num_movements = 22;
loading_factor = [1350, 1000, 1250, 1900, 1100, 800, 800, 1850, 1000, 1250, 1000, 1950, 800, 1550, 1750, 1450, 1250, 1650, 1450, 950, 1200, 1700];
pickup_time = [0, 0, 0, 0, 1, 1, 2, 2, 2, 2, 3, 3, 3, 5, 6, 6, 6, 8, 8, 8, 9, 9];
delivery_time = [2, 2, 1, 1, 3, 3, 3, 4, 3, 3, 10, 5, 6, 8, 8, 10, 8, 9, 9, 10, 10, 10];

% transporter definition
total_capacity = 7000;
num_decks = 3;
capacity = [3000, 1000, 3000];

% ways out of decks
num_ways_out = 1;
paths_out = array3d(decks, ways_out, decks, [
% ways out of deck d1
2, 3, 0, 

% ways out of deck d2
3, 0, 0, 

% ways out of deck d3
0, 0, 0,	

]);

